nApps = 222
nRes = 9
nActs = 452
nNetworks = 6

assignmentToResources = [3,2,1,1,2,1,3,3,3,1,2,3,3,1,1,3,1,1,3,2,1,3,3,3,3,1,3,1,1,2,3,3,1,3,1,3,1,2,1,2,2,1,3,1,1,3,1,1,3,3,1,3,3,2,1,1,3,2,3,3,2,2,1,2,2,2,2,1,3,3,1,2,1,1,1,3,1,1,1,2,1,2,3,3,1,1,1,2,2,2,1,1,3,2,3,3,1,1,1,3,6,6,6,6,5,4,4,5,4,4,6,6,6,6,6,4,4,5,5,5,5,5,6,6,6,6,6,4,4,4,4,6,4,6,5,5,5,4,4,4,6,6,6,6,6,4,6,6,6,4,4,4,4,5,5,5,5,5,6,6,6,4,6,6,6,6,6,6,6,6,4,4,5,5,4,5,5,5,5,4,6,6,4,4,4,4,6,6,6,6,6,6,6,6,6,4,4,4,6,6,6,6,6,6,6,6,5,5,5,5,5,5,5,5,5,5,5,4,4,6,6,6,6,6,5,5,4,4,4,5,5,5,5,5,5,6,6,6,5,5,5,5,5,5,5,4,6,5,6,4,6,6,5,7,6,8,4,8,5,7,6,8,5,7,5,9,4,8,6,7,5,7,4,9,4,8,6,7,4,8,4,9,6,7,4,9,6,8,4,9,5,7,5,7,6,8,4,8,5,7,8,8,7,8,7,8,8,7,9,8,7,7,7,7,7,8,8,7,9,9,9,7,8,8,7,8,7,9,9,8,9,7,9,7,7,9,9,9,8,9,7,7,8,8,7,9,7,7,7,8,9,8,8,9,9,9,7,7,7,8,7,9,8,8,7,8,8,8,7,7,8,8,7,7,9,7,9,7,9,8,8,7,9,9,9,8,7,7,7,7,7,8,7,8,7,8,9,9,7,8,7,7,8,7,8,7,9,9,9,7,9,7,7,7,7,9,7,8,9,7,7,8,8,7,7,9,8,9,9,9,7,7,7,7,9,7,7,8,9,9,9,9,9,9,7,9,7,7,7,9,7,8];

processingTimes = [136,136,128,120,128,80,160,80,136,136,136,136,88,96,72,152,120,88,64,128,96,120,88,112,168,128,128,88,72,112,128,136,168,96,152,104,104,112,104,128,64,56,112,136,128,56,168,96,96,152,128,112,80,88,136,104,48,128,136,152,168,96,64,72,104,104,56,104,128,128,136,112,128,120,112,160,112,112,96,104,120,88,160,112,56,152,72,144,120,136,120,72,152,128,136,152,168,88,160,128,4,4,3,4,500,1000,4,3,4,4,3,500,4,4,500,4,5,3,100,3,5,5,4,4,4,4,500,500,13,13,5,3,3,4,500,4,4,500,3,4,4,500,4,1000,500,4,500,500,3,4,4,4,3,3,3,500,3,500,3,3,5,4,4,1000,500,5,4,1000,500,4,4,4,3,5,500,4,4,4,4,3,3,5,3,8,13,1000,4,4,3,4,500,1000,3,3,3,4,4,3,4,3,500,4,4,4,13,13,3,3,3,3,500,4,5,500,500,4,5,5,500,4,4,4,4,4,3,3,4,3,8,500,500,3,8,4,4,4,4,5,4,13,3,3,3,3,500,8,8,5,3,3,4,3,3,3,3,3,4,4,4,4,4,4,3,3,500,500,500,500,500,500,500,500,500,500,500,500,4,4,3,3,3,3,4,4,3,3,13,13,4,4,4,4,5,5,4,4,4,4,8,8,4,4,3,4,500,1000,4,3,4,4,3,500,4,4,500,4,5,3,100,3,5,5,4,4,4,4,500,500,13,13,5,3,3,4,500,4,4,500,3,4,4,500,4,1000,500,4,500,500,3,4,4,4,3,3,3,500,3,500,3,3,5,4,4,1000,500,5,4,1000,500,4,4,4,3,5,500,4,4,4,4,3,3,5,3,8,13,1000,4,4,3,4,500,1000,3,3,3,4,4,3,4,3,500,4,4,4,13,13,3,3,3,3,500,4,5,500,500,4,5,5,500,4,4,4,4,4,3,3,4,3,8,500,500,3,8,4,4,4,4,5,4,13,3,3,3,3,500,8,8,5,3,3,4,3];

periods = [10000,10000,100000,100000,100000,10000,20000,20000,20000,10000,1000,20000,10000,20000,100000,100000,20000,20000,10000,20000,10000,100000,20000,10000,10000,10000,20000,50000,5000,100000,20000,10000,10000,20000,10000,10000,20000,10000,20000,100000,20000,10000,20000,100000,20000,20000,20000,20000,2000,10000,20000,20000,20000,10000,100000,2000,10000,20000,10000,100000,20000,100000,20000,20000,20000,20000,5000,10000,100000,10000,100000,5000,100000,20000,100000,10000,10000,100000,20000,10000,10000,10000,100000,10000,20000,100000,20000,2000,20000,100000,10000,10000,20000,100000,100000,10000,100000,10000,20000,2000,10000,10000,10000,10000,10000,100000,100000,100000,10000,10000,20000,20000,20000,20000,20000,10000,10000,1000,1000,1000,1000,1000,20000,20000,10000,10000,10000,20000,100000,100000,100000,100000,20000,10000,20000,20000,20000,10000,10000,10000,100000,100000,20000,10000,10000,10000,20000,20000,20000,50000,50000,5000,5000,100000,100000,100000,100000,100000,20000,20000,10000,10000,20000,20000,20000,20000,20000,10000,10000,10000,20000,20000,10000,10000,20000,100000,100000,20000,20000,10000,20000,20000,100000,100000,20000,20000,20000,20000,2000,2000,10000,20000,20000,20000,20000,100000,100000,100000,10000,10000,10000,10000,10000,100000,100000,100000,20000,20000,20000,20000,20000,20000,20000,20000,20000,20000,5000,10000,10000,100000,100000,100000,10000,10000,5000,5000,20000,20000,10000,10000,10000,10000,10000,10000,10000,100000,100000,10000,2000,2000,20000,20000,20000,20000,100000,10000,20000,100000,10000,100000,2000,2000,100000,100000,100000,100000,100000,100000,100000,100000,100000,100000,100000,100000,20000,20000,20000,20000,20000,20000,20000,20000,20000,20000,20000,20000,20000,20000,20000,20000,100000,100000,100000,100000,20000,20000,20000,20000,10000,10000,10000,10000,10000,10000,20000,20000,100000,100000,10000,10000,10000,10000,10000,10000,10000,100000,100000,100000,10000,10000,20000,20000,20000,20000,20000,10000,10000,1000,1000,1000,1000,1000,20000,20000,10000,10000,10000,20000,100000,100000,100000,100000,20000,10000,20000,20000,20000,10000,10000,10000,100000,100000,20000,10000,10000,10000,20000,20000,20000,50000,50000,5000,5000,100000,100000,100000,100000,100000,20000,20000,10000,10000,20000,20000,20000,20000,20000,10000,10000,10000,20000,20000,10000,10000,20000,100000,100000,20000,20000,10000,20000,20000,100000,100000,20000,20000,20000,20000,2000,2000,10000,20000,20000,20000,20000,100000,100000,100000,10000,10000,10000,10000,10000,100000,100000,100000,20000,20000,20000,20000,20000,20000,20000,20000,20000,20000,5000,10000,10000,100000,100000,100000,10000,10000,5000,5000,20000,20000,10000,10000,10000,10000,10000,10000,10000,100000,100000,10000,2000,2000,20000,20000,20000,20000,100000,10000,20000,100000,10000,100000,2000,2000];

assignmentToClusters = [1,2,3,4,3,5,6,7,8,9,10,11,12,11,13,14,15,16,17,6,18,19,6,20,21,22,23,24,25,3,26,27,28,29,20,30,31,32,33,34,35,32,36,3,37,38,6,6,39,20,40,35,16,20,41,42,43,44,45,3,11,3,11,16,6,46,47,48,14,49,50,51,14,52,53,54,55,3,56,55,57,58,3,59,60,61,62,63,6,50,64,32,65,34,14,66,67,68,69,70,71,72,73,74,75,76,77,78,79,80,81,82,83,84,85,86,87,88,89,90,91,92,93,94,95,96,97,98,99,100,101,102,103,104,105,106,107,108,109,110,111,112,113,114,115,116,117,118,119,120,121,122,123,124,125,126,127,128,129,130,131,132,133,134,135,136,137,138,139,140,141,142,143,144,145,146,147,148,149,150,151,152,153,154,155,156,157,158,159,160,161,162,163,164,165,166,167,168,169,170,171,172,173,174,175,176,177,178,179,180,181,182,183,184,185,186,187,188,189,190,191,192,193,194,195,196,197,198,199,200,201,202,203,204,205,206,207,208,209,210,211,212,213,214,215,216,217,218,219,220,221,222,3,3,3,3,3,3,3,3,3,3,3,3,6,6,6,6,6,6,6,6,6,6,6,6,11,11,11,11,14,14,14,14,16,16,16,16,20,20,20,20,32,32,35,35,50,50,55,55,71,72,73,74,75,76,77,78,79,80,81,82,83,84,85,86,87,88,89,90,91,92,93,94,95,96,97,98,99,100,101,102,103,104,105,106,107,108,109,110,111,112,113,114,115,116,117,118,119,120,121,122,123,124,125,126,127,128,129,130,131,132,133,134,135,136,137,138,139,140,141,142,143,144,145,146,147,148,149,150,151,152,153,154,155,156,157,158,159,160,161,162,163,164,165,166,167,168,169,170,171,172,173,174,175,176,177,178,179,180,181,182,183,184,185,186,187,188,189,190,191,192,193,194,195,196,197,198,199,200,201,202,203,204,205,206,207,208,209,210,211,212,213,214,215,216,217,218,219,220,221,222];

precedenceAdjList = [[],[],[253],[],[255,257],[],[265],[],[],[],[],[],[],[62],[],[94],[],[],[],[275],[],[],[273],[289],[],[],[],[],[],[61],[],[],[],[],[291],[],[],[],[],[93],[295],[293],[],[263],[],[],[269,271],[],[],[23],[],[],[285],[],[],[],[],[],[],[],[279],[261],[277],[287],[267],[],[],[],[],[],[],[],[283],[],[],[],[299],[259],[],[],[],[],[],[],[],[],[],[],[],[297],[],[41],[],[],[281],[],[],[],[],[],[],[],[],[],[],[],[],[],[],[],[],[],[],[],[],[],[],[],[],[],[],[],[],[],[],[],[],[],[],[],[],[],[],[],[],[],[],[],[],[],[],[],[],[],[],[],[],[],[],[],[],[],[],[],[],[],[],[],[],[],[],[],[],[],[],[],[],[],[],[],[],[],[],[],[],[],[],[],[],[],[],[],[],[],[],[],[],[],[],[],[],[],[],[],[],[],[],[],[],[],[],[],[],[],[],[],[],[],[],[],[],[],[],[],[],[],[],[],[],[],[],[],[],[],[],[],[],[],[],[],[],[],[],[],[],[],[],[],[],[],[],[],[],[],[],[],[],[],[],[],[],[],[4],[252],[82],[254],[77],[256],[61],[258],[59],[260],[29],[262],[64],[264],[47],[266],[6],[268],[88],[270],[46],[272],[46],[274],[11],[276],[13],[278],[72],[280],[68],[282],[17],[284],[52],[286],[34],[288],[53],[290],[37],[292],[51],[294],[70],[296],[79],[298],[100],[101],[102],[103],[104],[105],[106],[107],[108],[109],[110],[111],[112],[113],[114],[115],[116],[117],[118],[119],[120],[121],[122],[123],[124],[125],[126],[127],[128],[129],[130],[131],[132],[133],[134],[135],[136],[137],[138],[139],[140],[141],[142],[143],[144],[145],[146],[147],[148],[149],[150],[151],[152],[153],[154],[155],[156],[157],[158],[159],[160],[161],[162],[163],[164],[165],[166],[167],[168],[169],[170],[171],[172],[173],[174],[175],[176],[177],[178],[179],[180],[181],[182],[183],[184],[185],[186],[187],[188],[189],[190],[191],[192],[193],[194],[195],[196],[197],[198],[199],[200],[201],[202],[203],[204],[205],[206],[207],[208],[209],[210],[211],[212],[213],[214],[215],[216],[217],[218],[219],[220],[221],[222],[223],[224],[225],[226],[227],[228],[229],[230],[231],[232],[233],[234],[235],[236],[237],[238],[239],[240],[241],[242],[243],[244],[245],[246],[247],[248],[249],[250],[251]];